\ Model gap_standalone_model_copy
\ LP format - for model browsing. Use MPS format to capture full model detail.
Maximize
  25 task_0_machine_0 + 16 task_0_machine_1 + 20 task_0_machine_2
   + 16 task_0_machine_3 + 17 task_0_machine_4 + 24 task_0_machine_5
   + 18 task_0_machine_6 + 19 task_0_machine_7 + 23 task_1_machine_0
   + 19 task_1_machine_1 + 18 task_1_machine_2 + 16 task_1_machine_3
   + 23 task_1_machine_4 + 21 task_1_machine_5 + 21 task_1_machine_6
   + 24 task_1_machine_7 + 20 task_2_machine_0 + 22 task_2_machine_1
   + 23 task_2_machine_2 + 15 task_2_machine_3 + 21 task_2_machine_4
   + 23 task_2_machine_5 + 22 task_2_machine_6 + 18 task_2_machine_7
   + 16 task_3_machine_0 + 22 task_3_machine_1 + 23 task_3_machine_2
   + 23 task_3_machine_3 + 20 task_3_machine_4 + 17 task_3_machine_5
   + 23 task_3_machine_6 + 17 task_3_machine_7 + 19 task_4_machine_0
   + 19 task_4_machine_1 + 23 task_4_machine_2 + 15 task_4_machine_3
   + 24 task_4_machine_4 + 21 task_4_machine_5 + 22 task_4_machine_6
   + 21 task_4_machine_7 + 22 task_5_machine_0 + 23 task_5_machine_1
   + 17 task_5_machine_2 + 15 task_5_machine_3 + 22 task_5_machine_4
   + 19 task_5_machine_5 + 15 task_5_machine_6 + 18 task_5_machine_7
   + 20 task_6_machine_0 + 17 task_6_machine_1 + 19 task_6_machine_2
   + 25 task_6_machine_3 + 25 task_6_machine_4 + 19 task_6_machine_5
   + 18 task_6_machine_6 + 24 task_6_machine_7 + 16 task_7_machine_0
   + 24 task_7_machine_1 + 16 task_7_machine_2 + 22 task_7_machine_3
   + 17 task_7_machine_4 + 17 task_7_machine_5 + 15 task_7_machine_6
   + 25 task_7_machine_7 + 15 task_8_machine_0 + 15 task_8_machine_1
   + 24 task_8_machine_2 + 17 task_8_machine_3 + 22 task_8_machine_4
   + 18 task_8_machine_5 + 21 task_8_machine_6 + 18 task_8_machine_7
   + 22 task_9_machine_0 + 24 task_9_machine_1 + 24 task_9_machine_2
   + 20 task_9_machine_3 + 20 task_9_machine_4 + 24 task_9_machine_5
   + 22 task_9_machine_6 + 23 task_9_machine_7 + 15 task_10_machine_0
   + 18 task_10_machine_1 + 17 task_10_machine_2 + 19 task_10_machine_3
   + 16 task_10_machine_4 + 15 task_10_machine_5 + 15 task_10_machine_6
   + 21 task_10_machine_7 + 21 task_11_machine_0 + 19 task_11_machine_1
   + 23 task_11_machine_2 + 16 task_11_machine_3 + 22 task_11_machine_4
   + 15 task_11_machine_5 + 23 task_11_machine_6 + 15 task_11_machine_7
   + 20 task_12_machine_0 + 20 task_12_machine_1 + 19 task_12_machine_2
   + 17 task_12_machine_3 + 21 task_12_machine_4 + 17 task_12_machine_5
   + 21 task_12_machine_6 + 24 task_12_machine_7 + 23 task_13_machine_0
   + 24 task_13_machine_1 + 22 task_13_machine_2 + 17 task_13_machine_3
   + 23 task_13_machine_4 + 18 task_13_machine_5 + 25 task_13_machine_6
   + 23 task_13_machine_7 + 20 task_14_machine_0 + 25 task_14_machine_1
   + 23 task_14_machine_2 + 20 task_14_machine_3 + 24 task_14_machine_4
   + 15 task_14_machine_5 + 25 task_14_machine_6 + 18 task_14_machine_7
   + 22 task_15_machine_0 + 25 task_15_machine_1 + 25 task_15_machine_2
   + 17 task_15_machine_3 + 15 task_15_machine_4 + 24 task_15_machine_5
   + 23 task_15_machine_6 + 18 task_15_machine_7 + 19 task_16_machine_0
   + 19 task_16_machine_1 + 23 task_16_machine_2 + 17 task_16_machine_3
   + 22 task_16_machine_4 + 19 task_16_machine_5 + 20 task_16_machine_6
   + 23 task_16_machine_7 + 25 task_17_machine_0 + 24 task_17_machine_1
   + 18 task_17_machine_2 + 18 task_17_machine_3 + 25 task_17_machine_4
   + 21 task_17_machine_5 + 16 task_17_machine_6 + 23 task_17_machine_7
   + 25 task_18_machine_0 + 18 task_18_machine_1 + 19 task_18_machine_2
   + 16 task_18_machine_3 + 18 task_18_machine_4 + 23 task_18_machine_5
   + 25 task_18_machine_6 + 16 task_18_machine_7 + 24 task_19_machine_0
   + 21 task_19_machine_1 + 24 task_19_machine_2 + 18 task_19_machine_3
   + 19 task_19_machine_4 + 24 task_19_machine_5 + 17 task_19_machine_6
   + 20 task_19_machine_7 + 21 task_20_machine_0 + 16 task_20_machine_1
   + 20 task_20_machine_2 + 15 task_20_machine_3 + 19 task_20_machine_4
   + 17 task_20_machine_5 + 15 task_20_machine_6 + 20 task_20_machine_7
   + 17 task_21_machine_0 + 25 task_21_machine_1 + 17 task_21_machine_2
   + 25 task_21_machine_3 + 17 task_21_machine_4 + 20 task_21_machine_5
   + 15 task_21_machine_6 + 19 task_21_machine_7 + 23 task_22_machine_0
   + 15 task_22_machine_1 + 23 task_22_machine_2 + 22 task_22_machine_3
   + 22 task_22_machine_4 + 16 task_22_machine_5 + 18 task_22_machine_6
   + 25 task_22_machine_7 + 17 task_23_machine_0 + 20 task_23_machine_1
   + 23 task_23_machine_2 + 17 task_23_machine_3 + 23 task_23_machine_4
   + 21 task_23_machine_5 + 16 task_23_machine_6 + 21 task_23_machine_7
Subject To
 task_assignment_0: task_0_machine_0 + task_0_machine_1 + task_0_machine_2
   + task_0_machine_3 + task_0_machine_4 + task_0_machine_5
   + task_0_machine_6 + task_0_machine_7 <= 1
 task_assignment_1: task_1_machine_0 + task_1_machine_1 + task_1_machine_2
   + task_1_machine_3 + task_1_machine_4 + task_1_machine_5
   + task_1_machine_6 + task_1_machine_7 <= 1
 task_assignment_2: task_2_machine_0 + task_2_machine_1 + task_2_machine_2
   + task_2_machine_3 + task_2_machine_4 + task_2_machine_5
   + task_2_machine_6 + task_2_machine_7 <= 1
 task_assignment_3: task_3_machine_0 + task_3_machine_1 + task_3_machine_2
   + task_3_machine_3 + task_3_machine_4 + task_3_machine_5
   + task_3_machine_6 + task_3_machine_7 <= 1
 task_assignment_4: task_4_machine_0 + task_4_machine_1 + task_4_machine_2
   + task_4_machine_3 + task_4_machine_4 + task_4_machine_5
   + task_4_machine_6 + task_4_machine_7 <= 1
 task_assignment_5: task_5_machine_0 + task_5_machine_1 + task_5_machine_2
   + task_5_machine_3 + task_5_machine_4 + task_5_machine_5
   + task_5_machine_6 + task_5_machine_7 <= 1
 task_assignment_6: task_6_machine_0 + task_6_machine_1 + task_6_machine_2
   + task_6_machine_3 + task_6_machine_4 + task_6_machine_5
   + task_6_machine_6 + task_6_machine_7 <= 1
 task_assignment_7: task_7_machine_0 + task_7_machine_1 + task_7_machine_2
   + task_7_machine_3 + task_7_machine_4 + task_7_machine_5
   + task_7_machine_6 + task_7_machine_7 <= 1
 task_assignment_8: task_8_machine_0 + task_8_machine_1 + task_8_machine_2
   + task_8_machine_3 + task_8_machine_4 + task_8_machine_5
   + task_8_machine_6 + task_8_machine_7 <= 1
 task_assignment_9: task_9_machine_0 + task_9_machine_1 + task_9_machine_2
   + task_9_machine_3 + task_9_machine_4 + task_9_machine_5
   + task_9_machine_6 + task_9_machine_7 <= 1
 task_assignment_10: task_10_machine_0 + task_10_machine_1
   + task_10_machine_2 + task_10_machine_3 + task_10_machine_4
   + task_10_machine_5 + task_10_machine_6 + task_10_machine_7 <= 1
 task_assignment_11: task_11_machine_0 + task_11_machine_1
   + task_11_machine_2 + task_11_machine_3 + task_11_machine_4
   + task_11_machine_5 + task_11_machine_6 + task_11_machine_7 <= 1
 task_assignment_12: task_12_machine_0 + task_12_machine_1
   + task_12_machine_2 + task_12_machine_3 + task_12_machine_4
   + task_12_machine_5 + task_12_machine_6 + task_12_machine_7 <= 1
 task_assignment_13: task_13_machine_0 + task_13_machine_1
   + task_13_machine_2 + task_13_machine_3 + task_13_machine_4
   + task_13_machine_5 + task_13_machine_6 + task_13_machine_7 <= 1
 task_assignment_14: task_14_machine_0 + task_14_machine_1
   + task_14_machine_2 + task_14_machine_3 + task_14_machine_4
   + task_14_machine_5 + task_14_machine_6 + task_14_machine_7 <= 1
 task_assignment_15: task_15_machine_0 + task_15_machine_1
   + task_15_machine_2 + task_15_machine_3 + task_15_machine_4
   + task_15_machine_5 + task_15_machine_6 + task_15_machine_7 <= 1
 task_assignment_16: task_16_machine_0 + task_16_machine_1
   + task_16_machine_2 + task_16_machine_3 + task_16_machine_4
   + task_16_machine_5 + task_16_machine_6 + task_16_machine_7 <= 1
 task_assignment_17: task_17_machine_0 + task_17_machine_1
   + task_17_machine_2 + task_17_machine_3 + task_17_machine_4
   + task_17_machine_5 + task_17_machine_6 + task_17_machine_7 <= 1
 task_assignment_18: task_18_machine_0 + task_18_machine_1
   + task_18_machine_2 + task_18_machine_3 + task_18_machine_4
   + task_18_machine_5 + task_18_machine_6 + task_18_machine_7 <= 1
 task_assignment_19: task_19_machine_0 + task_19_machine_1
   + task_19_machine_2 + task_19_machine_3 + task_19_machine_4
   + task_19_machine_5 + task_19_machine_6 + task_19_machine_7 <= 1
 task_assignment_20: task_20_machine_0 + task_20_machine_1
   + task_20_machine_2 + task_20_machine_3 + task_20_machine_4
   + task_20_machine_5 + task_20_machine_6 + task_20_machine_7 <= 1
 task_assignment_21: task_21_machine_0 + task_21_machine_1
   + task_21_machine_2 + task_21_machine_3 + task_21_machine_4
   + task_21_machine_5 + task_21_machine_6 + task_21_machine_7 <= 1
 task_assignment_22: task_22_machine_0 + task_22_machine_1
   + task_22_machine_2 + task_22_machine_3 + task_22_machine_4
   + task_22_machine_5 + task_22_machine_6 + task_22_machine_7 <= 1
 task_assignment_23: task_23_machine_0 + task_23_machine_1
   + task_23_machine_2 + task_23_machine_3 + task_23_machine_4
   + task_23_machine_5 + task_23_machine_6 + task_23_machine_7 <= 1
 machine_capacity_0: 8 task_0_machine_0 + 18 task_1_machine_0
   + 22 task_2_machine_0 + 5 task_3_machine_0 + 11 task_4_machine_0
   + 11 task_5_machine_0 + 22 task_6_machine_0 + 11 task_7_machine_0
   + 17 task_8_machine_0 + 22 task_9_machine_0 + 11 task_10_machine_0
   + 20 task_11_machine_0 + 13 task_12_machine_0 + 13 task_13_machine_0
   + 7 task_14_machine_0 + 22 task_15_machine_0 + 15 task_16_machine_0
   + 22 task_17_machine_0 + 24 task_18_machine_0 + 8 task_19_machine_0
   + 8 task_20_machine_0 + 24 task_21_machine_0 + 18 task_22_machine_0
   + 8 task_23_machine_0 <= 36
 machine_capacity_1: 24 task_0_machine_1 + 14 task_1_machine_1
   + 11 task_2_machine_1 + 15 task_3_machine_1 + 24 task_4_machine_1
   + 8 task_5_machine_1 + 10 task_6_machine_1 + 15 task_7_machine_1
   + 19 task_8_machine_1 + 25 task_9_machine_1 + 6 task_10_machine_1
   + 13 task_11_machine_1 + 10 task_12_machine_1 + 25 task_13_machine_1
   + 19 task_14_machine_1 + 24 task_15_machine_1 + 13 task_16_machine_1
   + 12 task_17_machine_1 + 5 task_18_machine_1 + 18 task_19_machine_1
   + 10 task_20_machine_1 + 24 task_21_machine_1 + 8 task_22_machine_1
   + 5 task_23_machine_1 <= 35
 machine_capacity_2: 22 task_0_machine_2 + 22 task_1_machine_2
   + 21 task_2_machine_2 + 22 task_3_machine_2 + 13 task_4_machine_2
   + 16 task_5_machine_2 + 21 task_6_machine_2 + 5 task_7_machine_2
   + 25 task_8_machine_2 + 13 task_9_machine_2 + 12 task_10_machine_2
   + 9 task_11_machine_2 + 24 task_12_machine_2 + 6 task_13_machine_2
   + 22 task_14_machine_2 + 24 task_15_machine_2 + 11 task_16_machine_2
   + 21 task_17_machine_2 + 11 task_18_machine_2 + 14 task_19_machine_2
   + 12 task_20_machine_2 + 10 task_21_machine_2 + 20 task_22_machine_2
   + 6 task_23_machine_2 <= 38
 machine_capacity_3: 13 task_0_machine_3 + 8 task_1_machine_3
   + 19 task_2_machine_3 + 12 task_3_machine_3 + 19 task_4_machine_3
   + 18 task_5_machine_3 + 10 task_6_machine_3 + 21 task_7_machine_3
   + 5 task_8_machine_3 + 9 task_9_machine_3 + 11 task_10_machine_3
   + 9 task_11_machine_3 + 22 task_12_machine_3 + 8 task_13_machine_3
   + 12 task_14_machine_3 + 13 task_15_machine_3 + 9 task_16_machine_3
   + 25 task_17_machine_3 + 19 task_18_machine_3 + 24 task_19_machine_3
   + 22 task_20_machine_3 + 6 task_21_machine_3 + 19 task_22_machine_3
   + 14 task_23_machine_3 <= 34
 machine_capacity_4: 25 task_0_machine_4 + 16 task_1_machine_4
   + 13 task_2_machine_4 + 5 task_3_machine_4 + 11 task_4_machine_4
   + 8 task_5_machine_4 + 7 task_6_machine_4 + 8 task_7_machine_4
   + 25 task_8_machine_4 + 20 task_9_machine_4 + 24 task_10_machine_4
   + 20 task_11_machine_4 + 11 task_12_machine_4 + 6 task_13_machine_4
   + 10 task_14_machine_4 + 10 task_15_machine_4 + 6 task_16_machine_4
   + 22 task_17_machine_4 + 10 task_18_machine_4 + 10 task_19_machine_4
   + 13 task_20_machine_4 + 21 task_21_machine_4 + 5 task_22_machine_4
   + 19 task_23_machine_4 <= 32
 machine_capacity_5: 19 task_0_machine_5 + 19 task_1_machine_5
   + 5 task_2_machine_5 + 11 task_3_machine_5 + 22 task_4_machine_5
   + 24 task_5_machine_5 + 18 task_6_machine_5 + 11 task_7_machine_5
   + 6 task_8_machine_5 + 13 task_9_machine_5 + 24 task_10_machine_5
   + 24 task_11_machine_5 + 22 task_12_machine_5 + 6 task_13_machine_5
   + 22 task_14_machine_5 + 5 task_15_machine_5 + 14 task_16_machine_5
   + 6 task_17_machine_5 + 16 task_18_machine_5 + 11 task_19_machine_5
   + 6 task_20_machine_5 + 8 task_21_machine_5 + 18 task_22_machine_5
   + 10 task_23_machine_5 <= 34
 machine_capacity_6: 24 task_0_machine_6 + 10 task_1_machine_6
   + 9 task_2_machine_6 + 10 task_3_machine_6 + 6 task_4_machine_6
   + 15 task_5_machine_6 + 7 task_6_machine_6 + 13 task_7_machine_6
   + 20 task_8_machine_6 + 8 task_9_machine_6 + 7 task_10_machine_6
   + 9 task_11_machine_6 + 24 task_12_machine_6 + 9 task_13_machine_6
   + 21 task_14_machine_6 + 9 task_15_machine_6 + 11 task_16_machine_6
   + 19 task_17_machine_6 + 10 task_18_machine_6 + 5 task_19_machine_6
   + 23 task_20_machine_6 + 20 task_21_machine_6 + 5 task_22_machine_6
   + 21 task_23_machine_6 <= 31
 machine_capacity_7: 6 task_0_machine_7 + 9 task_1_machine_7
   + 9 task_2_machine_7 + 5 task_3_machine_7 + 12 task_4_machine_7
   + 10 task_5_machine_7 + 16 task_6_machine_7 + 15 task_7_machine_7
   + 19 task_8_machine_7 + 18 task_9_machine_7 + 20 task_10_machine_7
   + 18 task_11_machine_7 + 16 task_12_machine_7 + 21 task_13_machine_7
   + 11 task_14_machine_7 + 12 task_15_machine_7 + 22 task_16_machine_7
   + 16 task_17_machine_7 + 21 task_18_machine_7 + 25 task_19_machine_7
   + 7 task_20_machine_7 + 14 task_21_machine_7 + 16 task_22_machine_7
   + 10 task_23_machine_7 <= 34
Bounds
 task_0_machine_0 <= 1
 task_0_machine_1 <= 1
 task_0_machine_2 <= 1
 task_0_machine_3 <= 1
 task_0_machine_4 <= 1
 task_0_machine_5 <= 1
 task_0_machine_6 <= 1
 task_0_machine_7 <= 1
 task_1_machine_0 <= 1
 task_1_machine_1 <= 1
 task_1_machine_2 <= 1
 task_1_machine_3 <= 1
 task_1_machine_4 <= 1
 task_1_machine_5 <= 1
 task_1_machine_6 <= 1
 task_1_machine_7 <= 1
 task_2_machine_0 <= 1
 task_2_machine_1 <= 1
 task_2_machine_2 <= 1
 task_2_machine_3 <= 1
 task_2_machine_4 <= 1
 task_2_machine_5 <= 1
 task_2_machine_6 <= 1
 task_2_machine_7 <= 1
 task_3_machine_0 <= 1
 task_3_machine_1 <= 1
 task_3_machine_2 <= 1
 task_3_machine_3 <= 1
 task_3_machine_4 <= 1
 task_3_machine_5 <= 1
 task_3_machine_6 <= 1
 task_3_machine_7 <= 1
 task_4_machine_0 <= 1
 task_4_machine_1 <= 1
 task_4_machine_2 <= 1
 task_4_machine_3 <= 1
 task_4_machine_4 <= 1
 task_4_machine_5 <= 1
 task_4_machine_6 <= 1
 task_4_machine_7 <= 1
 task_5_machine_0 <= 1
 task_5_machine_1 <= 1
 task_5_machine_2 <= 1
 task_5_machine_3 <= 1
 task_5_machine_4 <= 1
 task_5_machine_5 <= 1
 task_5_machine_6 <= 1
 task_5_machine_7 <= 1
 task_6_machine_0 <= 1
 task_6_machine_1 <= 1
 task_6_machine_2 <= 1
 task_6_machine_3 <= 1
 task_6_machine_4 <= 1
 task_6_machine_5 <= 1
 task_6_machine_6 <= 1
 task_6_machine_7 <= 1
 task_7_machine_0 <= 1
 task_7_machine_1 <= 1
 task_7_machine_2 <= 1
 task_7_machine_3 <= 1
 task_7_machine_4 <= 1
 task_7_machine_5 <= 1
 task_7_machine_6 <= 1
 task_7_machine_7 <= 1
 task_8_machine_0 <= 1
 task_8_machine_1 <= 1
 task_8_machine_2 <= 1
 task_8_machine_3 <= 1
 task_8_machine_4 <= 1
 task_8_machine_5 <= 1
 task_8_machine_6 <= 1
 task_8_machine_7 <= 1
 task_9_machine_0 <= 1
 task_9_machine_1 <= 1
 task_9_machine_2 <= 1
 task_9_machine_3 <= 1
 task_9_machine_4 <= 1
 task_9_machine_5 <= 1
 task_9_machine_6 <= 1
 task_9_machine_7 <= 1
 task_10_machine_0 <= 1
 task_10_machine_1 <= 1
 task_10_machine_2 <= 1
 task_10_machine_3 <= 1
 task_10_machine_4 <= 1
 task_10_machine_5 <= 1
 task_10_machine_6 <= 1
 task_10_machine_7 <= 1
 task_11_machine_0 <= 1
 task_11_machine_1 <= 1
 task_11_machine_2 <= 1
 task_11_machine_3 <= 1
 task_11_machine_4 <= 1
 task_11_machine_5 <= 1
 task_11_machine_6 <= 1
 task_11_machine_7 <= 1
 task_12_machine_0 <= 1
 task_12_machine_1 <= 1
 task_12_machine_2 <= 1
 task_12_machine_3 <= 1
 task_12_machine_4 <= 1
 task_12_machine_5 <= 1
 task_12_machine_6 <= 1
 task_12_machine_7 <= 1
 task_13_machine_0 <= 1
 task_13_machine_1 <= 1
 task_13_machine_2 <= 1
 task_13_machine_3 <= 1
 task_13_machine_4 <= 1
 task_13_machine_5 <= 1
 task_13_machine_6 <= 1
 task_13_machine_7 <= 1
 task_14_machine_0 <= 1
 task_14_machine_1 <= 1
 task_14_machine_2 <= 1
 task_14_machine_3 <= 1
 task_14_machine_4 <= 1
 task_14_machine_5 <= 1
 task_14_machine_6 <= 1
 task_14_machine_7 <= 1
 task_15_machine_0 <= 1
 task_15_machine_1 <= 1
 task_15_machine_2 <= 1
 task_15_machine_3 <= 1
 task_15_machine_4 <= 1
 task_15_machine_5 <= 1
 task_15_machine_6 <= 1
 task_15_machine_7 <= 1
 task_16_machine_0 <= 1
 task_16_machine_1 <= 1
 task_16_machine_2 <= 1
 task_16_machine_3 <= 1
 task_16_machine_4 <= 1
 task_16_machine_5 <= 1
 task_16_machine_6 <= 1
 task_16_machine_7 <= 1
 task_17_machine_0 <= 1
 task_17_machine_1 <= 1
 task_17_machine_2 <= 1
 task_17_machine_3 <= 1
 task_17_machine_4 <= 1
 task_17_machine_5 <= 1
 task_17_machine_6 <= 1
 task_17_machine_7 <= 1
 task_18_machine_0 <= 1
 task_18_machine_1 <= 1
 task_18_machine_2 <= 1
 task_18_machine_3 <= 1
 task_18_machine_4 <= 1
 task_18_machine_5 <= 1
 task_18_machine_6 <= 1
 task_18_machine_7 <= 1
 task_19_machine_0 <= 1
 task_19_machine_1 <= 1
 task_19_machine_2 <= 1
 task_19_machine_3 <= 1
 task_19_machine_4 <= 1
 task_19_machine_5 <= 1
 task_19_machine_6 <= 1
 task_19_machine_7 <= 1
 task_20_machine_0 <= 1
 task_20_machine_1 <= 1
 task_20_machine_2 <= 1
 task_20_machine_3 <= 1
 task_20_machine_4 <= 1
 task_20_machine_5 <= 1
 task_20_machine_6 <= 1
 task_20_machine_7 <= 1
 task_21_machine_0 <= 1
 task_21_machine_1 <= 1
 task_21_machine_2 <= 1
 task_21_machine_3 <= 1
 task_21_machine_4 <= 1
 task_21_machine_5 <= 1
 task_21_machine_6 <= 1
 task_21_machine_7 <= 1
 task_22_machine_0 <= 1
 task_22_machine_1 <= 1
 task_22_machine_2 <= 1
 task_22_machine_3 <= 1
 task_22_machine_4 <= 1
 task_22_machine_5 <= 1
 task_22_machine_6 <= 1
 task_22_machine_7 <= 1
 task_23_machine_0 <= 1
 task_23_machine_1 <= 1
 task_23_machine_2 <= 1
 task_23_machine_3 <= 1
 task_23_machine_4 <= 1
 task_23_machine_5 <= 1
 task_23_machine_6 <= 1
 task_23_machine_7 <= 1
End
